COMMENT : 101-city problem (Christofides/Eilon)
41 35 55 55 15 25 20 10 55 30 20 50 30 15 30 10 5 20 15 45 45 45 55 65 65 45 35 41 64 40 31 35 53 65 63 2 20 5 60 40 42 24 23 11 6 2 8 13 6 47 49 27 37 57 63 53 32 36 21 17 12 24 27 15 62 49 67 56 37 37 57 47 44 46 49 49 53 61 57 56 55 15 14 11 16 4 28 26 26 31 15 22 18 26 25 22 25 19 20 18 35
49 17 45 20 30 30 50 43 60 60 65 35 25 10 5 20 30 40 60 65 20 10 5 35 20 30 40 37 42 60 52 69 52 55 65 60 20 5 12 25 7 12 3 14 38 48 56 52 68 47 58 43 31 29 23 12 12 26 24 34 24 58 69 77 77 73 5 39 47 56 68 16 17 13 11 42 43 52 48 37 54 47 37 31 22 18 18 52 35 67 19 22 24 27 24 27 21 21 26 18 35
3032.28 2944.59 2944.59 2912.95 2912.95 2829.86 2815.14 2815.14 2815.14 2815.14 2727.82 2675.04 2675.04 2638.4 2638.4 2629.35 2629.35 2572.78 2572.78 2572.78 2571.84 2550.1 2550.1 2530.2 2520.44 2420.68 2420.68 2420.68 2420.68 2420.68 2330.33 2330.33 2330.33 2330.33 2330.33 2290.05 2290.05 2290.05 2288.72 2243.34 2243.34 2243.34 2222.78 2181.32 2181.32 2147.48 2147.48 2147.48 2147.48 2147.48 2123.43 2123.43 2117.04 2117.04 2111.55 2111.55 2111.55 2075.2 2067.97 2045.27 2045.27 2041.29 2041.29 2015.05 1999.15 1966.99 1966.99 1966.99 1966.99 1966.99 1966.99 1966.99 1966.99 1966.99 1966.99 1961.39 1961.39 1957.97 1957.97 1939.56 1939.56 1939.56 1939.56 1939.56 1939.56 1918.86 1918.86 1897.06 1897.06 1897.06 1897.06 1865.26 1865.26 1865.26 1865.26 1865.26 1865.26 1865.26 1865.26 1865.26 1865.26 1865.26 1865.26 1865.26 1846.72 1846.72 1846.72 1825.48 1825.48 1825.48 1825.48 1825.48 1825.48 1825.48 1825.48 1825.48 1802.42 1801.62 1801.62 1801.62 1795.12 1795.12 1795.12 1730.87 1711.61 1711.61 1711.61 1711.61 1711.61 1711.61 1711.61 1663.14 1663.14 1663.14 1663.14 1663.14 1663.14 1663.14 1663.14 1663.14 1663.14 1663.14 1663.14 1663.14 1663.14 1658.94 1657.81 1657.81 1657.81 1625.13 1625.13 1625.13 1625.13 1625.13 1625.13 1590.31 1572.01 1572.01 1572.01 1572.01 1572.01 1572.01 1572.01 1572.01 1572.01 1572.01 1564.29 1564.29 1564.29 1564.29 1564.29 1564.29 1564.29 1537.08 1537.08 1537.08 1537.08 1537.08 1537.08 1537.08 1537.08 1537.08 1537.08 1537.08 1537.08 1533.27 1533.27 1509.78 1509.78 1509.78 1509.78 1509.78 1509.01 1497.65 1497.65 1497.65 1497.65 1497.65 1497.65 1497.65 1497.65 1497.65 1497.65 1493.84 1490.43 1484.19 1482.66 1477.59 1477.59 1477.59 1477.59 1477.59 1477.59 1477.59 1477.59 1477.59 1477.59 1473.38 1473.38 1473.38 1473.38 1473.38 1473.38 1473.38 1473.38 1455.86 1455.86 1455.86 1455.86 1455.86 1444.43 1444.43 1444.43 1444.43 1413.62 1413.62 1413.62 1413.62 1413.62 1413.62 1413.62 1413.62 1413.62 1399.87 1399.87 1399.87 1399.87 1399.87 1399.87 1399.87 1399.87 1399.87 1399.87 1399.87 1397.22 1397.22 1397.22 1397.22 1397.22 1397.22 1397.22 1382.76 1382.76 1382.76 1376.94 1373.3 1373.3 1373.3 1373.3 1373.3 1373.3 1373.3 1373.3 1373.3 1373.3 1373.3 1373.3 1373.3 1373.3 1373.3 1373.3 1373.3 1373.3 1341.14 1341.14 1341.14 1332.59 1332.59 1332.59 1322.06 1322.06 1322.06 1322.06 1322.06 1322.06 1322.06 1322.06 1322.06 1317.83 1317.83 1317.83 1317.83 1315.84 1315.84 1315.84 1315.84 1303.09 1303.09 1300.06 1300.06 1297.96 1297.96 1297.96 1297.96 1279.91 1279.91 1279.91 1279.91 1279.91 1279.91 1279.91 1279.39 1279.39 1279.39 1279.39 1279.39 1276.3 1276.3 1276.3 1259.8 1259.8 1259.8 1259.8 1259.8 1259.8 1259.51 1259.51 1259.51 1259.51 1259.51 1228.78 1227.28 1227.28 1227.28 1227.28 1227.28 1227.28 1227.28 1227.28 1227.28 1227.28 1227.28 1227.28 1227.28 1226.72 1226.72 1225.24 1225.24 1225.24 1225.24 1225.24 1222.07 1216.84 1216.84 1216.84 1216.84 1216.84 1200.08 1200.08 1193.23 1193.23 1193.23 1193.23 1181.37 1181.37 1181.09 1181.09 1181.09 1181.09 1181.09 1181.09 1181.09 1181.09 1181.09 1181.09 1181.09 1181.09 1181.09 1181.09 1177.16 1163.87 1163.87 1163.87 1163.87 1163.87 1163.87 1163.87 1156.3 1156.3 1156.3 1156.3 1156.3 1156.3 1156.3 1156.3 1156.3 1156.3 1156.3 1156.3 1156.3 1150.04 1150.04 1150.04 1139.92 1139.92 1139.92 1139.92 1139.92 1137.66 1137.66 1137.66 1137.66 1137.66 1130.44 1130.44 1130.44 1128.15 1128.15 1128.15 1128.15 1128.15 1123.1 1123.1 1123.1 1123.1 1123.1 1112.29 1112.29 1112.29 1112.29 1112.29 1112.29 1112.29 1112.29 1112.29 1112.29 1112.29 1112.29 1112.29 1112.29 1104.91 1104.91 1104.91 1104.91 1104.91 1104.91 1104.48 1104.48 1104.48 1104.48 1104.48 1104.48 1104.48 1100.77 1100.77 1096.99 1092.96 1092.96 1092.96 1092.96 1092.96 1092.96 1092.96 1092.96 1092.96 1092.96 1087.37 1087.37 1087.37 1087.37 1087.37 1087.37 1083.85 1083.85 1083.85 1083.85 1083.85 1083.8 1081.64 1081.64 1081.64 1081.64 1081.64 1081.64 1071.23 1071.23 1065.37 1065.37 1065.37 1065.37 1065.37 1065.37 1065.37 1065.37 1065.37 1065.37 1065.37 1065.37 1065.37 1065.37 1065.37 1065.37 1063.24 1063.24 1063.24 1050.62 1050.62 1050.62 1050.62 1050.62 1050.62 1049.9 1049.9 1049.9 1049.9 1049.9 1049.9 1046.94 1046.94 1046.94 1040.27 1040.27 1030.53 1030.53 1030.53 1030.53 1030.53 1030.53 1030.53 1030.53 1030.53 1030.53 1030.53 1030.53 1028.63 1028.63 1028.63 1027.49 1027.49 1025.01 1025.01 1025.01 1021.71 1021.71 1021.71 1021.71 1021.71 1021.71 1021.71 1020.64 1020.64 1020.64 1020.64 1020.64 1019.62 1019.62 1019.62 1019.62 1019.62 1019.62 1017.44 1017.44 1017.44 1011.46 1011.46 1011.46 1011.46 1011.46 1011.46 1011.46 1011.46 1011.46 1011.46 1011.46 1011.46 1011.46 1009.81 1009.81 1007.52 1007.52 1004.59 1004.59 1004.59 1004.59 1004.59 1004.36 1004.36 1004.36 995.354 995.354 995.354 995.354 995.354 995.354 995.354 995.354 995.354 995.354 995.354 995.354 988.127 988.127 988.127 988.127 988.127 988.127 988.127 988.127 988.127 981.911 981.911 981.911 981.23 981.23 981.23 981.23 981.23 981.23 981.23 981.23 980.429 980.429 980.429 980.429 980.429 980.429 980.429 980.429 978.224 970.29 970.29 970.29 970.29 970.29 970.29 970.29 970.29 965.437 965.437 965.437 965.437 965.437 965.437 965.437 965.437 965.437 964.887 964.887 964.887 964.887 964.887 964.734 964.473 964.473 964.473 964.473 964.473 963.921 956.231 956.231 951.326 951.326 951.326 951.326 951.326 951.326 951.326 951.326 951.326 951.326 951.326 951.326 948.305 948.305 948.305 948.305 948.305 947.085 947.085 944.696 944.696 944.696 944.696 944.696 944.696 936.762 936.762 936.762 936.762 936.762 936.762 936.762 936.762 936.762 936.762 936.44 936.44 936.44 936.44 935.228 932.991 932.991 932.991 932.991 932.991 932.991 932.991 932.991 932.991 928.506 928.506 928.506 928.506 928.506 928.506 928.506 925.658 925.658 925.658 925.658 925.658 925.658 925.658 925.658 925.658 925.658 925.658 925.658 924.735 924.735 924.735 924.735 924.735 924.735 924.735 924.735 924.735 921.778 921.778 921.778 921.778 921.778 921.778 921.778 921.778 921.778 921.778 921.778 921.778 921.778 921.778 921.778 921.778 921.778 921.778 921.778 921.008 921.008 921.008 921.008 916.462 916.462 916.462 916.462 916.462 910.314 910.314 910.314 910.314 910.314 910.314 910.314 910.314 910.314 910.314 910.314 910.314 910.314 910.314 910.314 910.314 910.314 910.314 910.314 910.314 910.314 910.314 910.314 910.314 910.314 910.314 910.314 910.314 910.095 910.095 910.095 910.095 909.308 909.308 904.38 904.38 904.38 904.38 904.38 904.38 900.856 900.856 900.856 900.856 900.856 897.055 897.055 897.055 897.055 897.055 897.055 897.055 897.055 897.055 897.055 897.055 890.835 890.835 890.835 890.835 890.835 887.034 887.034 887.034 887.034 887.034 884.603 884.603 884.603 884.603 884.603 882.199 882.199 875.758 875.758 875.758 875.758 875.758 875.758 875.758 875.758 875.758 875.758 875.758 875.758 875.758 875.758 865.549 865.549 865.549 865.549 865.549 865.549 865.549 865.549 865.549 865.549 865.549 865.549 865.549 865.549 865.549 865.549 865.549 865.549 865.549 865.549 865.549 865.549 865.549 865.549 865.549 865.549 865.549 865.549 865.549 865.549 865.549 865.549 865.549 865.549 859.476 859.476 859.476 859.476 859.476 859.476 859.476 859.476 859.476 859.476 855.792 855.792 845.583 845.583 845.583 845.583 845.583 845.583 845.583 845.583 845.583 845.583 845.583 845.583 845.583 845.583 845.583 845.583 845.583 845.583 845.583 845.583 845.583 845.583 845.583 845.583 845.583 845.572 845.572 845.572 845.572 845.572 845.572 845.572 845.572 845.572 845.572 845.572 845.572 845.572 845.572 845.572 845.572 845.572 845.572 845.572 845.572 845.572 843.329 843.329 843.329 837.894 837.894 837.894 837.894 837.894 837.894 837.894 837.894 837.894 837.894 837.894 837.894 837.894 837.894 837.894 837.894 837.894 837.894 837.894 837.894 837.894 837.894 837.894 837.894 837.894 837.894 837.894 835.64 835.64 835.64 835.64 835.64 833.632 833.632 833.632 833.632 833.632 832.252 832.252 832.252 832.252 832.252 829.998 829.998 829.998 829.998 829.998 829.998 827.61 827.61 827.61 827.61 827.61 827.561 827.561 822.3 822.3 822.3 822.3 822.263 820.009 820.009 820.009 820.009 820.009 820.009 819.78 817.489 817.489 817.489 817.489 817.489 817.489 817.489 817.489 815.518 815.518 815.518 809.497 809.497 809.497 809.497 809.497 809.497 809.497 805.993 805.993 805.993 805.993 805.993 805.993 805.993 805.993 803.74 803.74 803.74 803.74 803.74 803.74 803.74 803.74 803.74 803.74 803.74 793.522 793.522 793.522 793.522 793.522 793.522 793.522 793.522 793.522 793.522 793.522 793.522 793.522 793.522 793.522 793.522 793.522 793.522 793.522 793.522 790.996 790.996 790.996 790.996 790.996 790.996 790.996 790.996 790.996 790.996 790.996 790.996 788.851 788.851 788.851 788.851 788.851 788.851 788.851 788.851 788.851 788.851 788.851 788.851 788.851 788.851 788.851 788.851 788.851 788.851 788.851 788.851 788.851 788.851 788.851 788.851 788.851 788.851 788.851 788.851 788.851 788.851 788.851 788.851 788.851 788.851 788.851 788.851 788.851 788.851 788.851 786.455 786.455 786.455 786.455 786.455 786.455 786.455 786.455 786.455 786.455 786.455 786.455 786.455 786.455 783.63 783.63 783.63 783.63 783.63 783.63 783.63 783.63 783.63 783.63 783.63 783.63 783.63 783.63 783.63 783.63 783.63 783.63 783.63 780.761 780.761 780.761 780.761 780.761 780.761 780.761 780.761 780.761 780.761 780.761 780.761 780.761 780.761 780.761 780.761 780.761 780.761 780.761 780.761 780.761 780.761 780.526 780.526 780.526 780.526 780.526 780.526 780.526 780.526 780.526 780.526 780.526 780.526 780.526 780.526 780.526 780.526 780.526 780.526 780.526 780.526 780.526 780.526 780.526 780.526 780.526 780.526 780.526 780.526 780.526 779.979 779.979 779.979 779.979 779.979 778.711 778.711 778.711 778.711 778.711 778.711 778.711 778.711 778.711 778.711 778.711 778.711 778.711 778.711 778.711 778.711 778.711 778.711 778.711 778.711 778.711 778.711 778.711 778.711 778.711 778.711 778.711 778.711 778.711 778.711 778.711 778.711 778.711 778.711 778.711 778.711 776.927 776.927 776.927 776.927 776.927 776.927 776.927 776.927 776.927 776.927 776.927 776.927 776.927 776.927 776.927 776.927 776.927 776.927 776.927 776.927 776.927 776.927 776.927 776.927 776.927 776.927 776.927 776.927 776.927 776.927 776.927 776.927 776.927 776.927 776.927 776.927 775.399 775.399 775.399 775.399 775.399 775.399 775.399 775.399 775.399 775.399 775.399 775.399 775.399 775.384 775.384 775.384 775.384 775.384 775.384 774.677 774.677 774.662 774.662 774.662 774.662 774.662 774.662 774.662 774.662 774.662 774.662 774.662 774.662 774.662 774.662 774.662 774.662 774.662 774.662 774.662 774.662 774.662 774.662 774.662 774.662 774.662 774.662 774.662 774.662 774.662 774.662 774.662 774.662 774.662 774.662 774.662 774.662 774.662 774.662 774.662 774.662 774.662 774.662 773.756 773.756 773.756 773.756 773.756 773.756 773.756 773.756 773.756 773.756 773.756 773.756 773.756 773.756 773.756 773.756 773.756 773.756 773.756 773.756 773.756 773.756 773.756 773.756 773.756 773.756 773.756 773.756 773.756 773.756 773.756 773.153 773.153 773.153 773.153 773.153 773.153 773.153 773.153 773.153 773.153 773.153 773.153 772.882 772.882 772.882 772.882 772.882 772.882 772.882 772.882 772.882 772.882 772.882 772.882 772.882 772.882 772.882 772.882 772.882 772.882 772.882 772.882 772.882 772.882 772.882 772.882 772.882 772.882 772.882 772.882 772.882 772.882 772.882 772.882 766.161 766.161 766.161 766.161 766.161 766.161 766.161 766.161 766.161 766.161 766.161 766.161 766.161 766.161 766.161 766.161 766.161 766.161 766.161 766.161 766.161 766.161 766.161 766.161 766.161 766.161 766.161 766.161 766.161 766.161 766.161 766.161 766.161 766.161 766.161 766.161 766.161 766.161 766.161 766.161 766.161 766.161 766.161 766.161 765.449 765.449 765.449 765.449 760.314 760.314 760.314 760.314 760.314 760.314 760.314 760.314 760.314 760.314 760.314 760.314 760.314 760.314 760.314 760.314 760.314 760.314 760.314 760.314 760.314 760.314 760.314 760.314 760.314 760.314 760.314 760.314 760.314 755.932 755.932 755.932 755.932 755.932 755.932 755.932 755.932 755.932 755.932 755.932 755.932 755.932 755.932 755.932 755.932 755.932 755.932 755.932 755.932 755.932 755.932 755.932 755.932 755.932 755.932 755.932 755.932 755.932 755.932 755.932 755.932 755.932 755.932 755.932 755.932 755.932 755.932 755.932 755.932 755.932 750.797 750.797 750.797 750.797 750.797 750.797 750.797 750.797 750.797 748.371 748.371 748.371 748.371 748.371 748.371 748.371 748.371 748.371 741.378 741.378 741.378 741.378 741.378 741.378 741.378 741.378 741.378 741.378 741.378 741.378 741.378 741.378 741.378 741.378 741.378 741.378 741.378 741.378 741.378 741.378 741.378 740.182 740.182 740.182 740.182 740.182 740.182 740.182 740.182 740.182 740.182 740.182 740.182 740.182 740.182 740.182 739.3 739.3 739.3 739.3 739.3 739.3 739.3 739.3 739.3 739.3 739.3 739.3 739.3 739.3 739.3 739.3 739.3 739.3 739.3 739.3 739.3 739.3 739.3 739.3 735.249 735.249 735.249 735.249 735.249 735.249 735.249 735.249 735.249 735.249 735.249 735.249 735.249 735.249 735.249 735.249 735.249 735.249 735.249 735.249 735.249 735.249 735.249 735.249 735.249 735.249 735.249 735.249 735.249 735.249 735.249 735.249 735.249 735.249 735.249 735.249 735.249 735.249 735.249 735.249 735.249 735.249 735.249 735.249 735.249 735.249 735.249 735.249 735.249 735.249 735.249 735.249 735.249 735.249 735.249 735.249 735.249 735.249 735.249 735.249 735.249 735.249 735.249 735.249 735.249 735.249 735.249 735.249 735.249 735.249 735.249 735.249 735.249 735.249 735.249 735.249 735.249 735.249 735.249 735.249 735.249 735.249 735.249 735.249 735.249 735.249 735.249 735.249 735.249 735.249 735.249 735.249 735.249 735.249 735.249 735.249 735.249 735.249 735.249 735.249 735.249 735.249 735.249 735.249 735.249 735.249 735.249 735.249 735.249 733.999 733.999 733.999 733.999 733.999 733.999 733.999 733.999 733.999 733.999 733.999 733.999 733.999 733.999 733.999 733.999 733.999 733.999 733.999 733.999 733.999 733.999 733.999 733.999 733.999 733.999 733.999 733.999 733.999 733.999 733.999 733.999 733.999 733.999 733.999 733.999 733.999 733.999 733.999 733.999 733.999 733.999 733.999 733.999 733.999 733.999 733.999 733.999 733.999 733.999 733.999 733.999 733.999 733.999 733.999 733.999 733.999 733.999 733.999 733.999 733.999 733.999 733.999 733.999 733.999 733.999 733.999 733.999 733.999 733.999 733.999 733.999 733.999 733.999 733.999 733.999 733.999 733.999 733.999 733.999 733.999 733.999 733.999 733.999 733.999 733.999 733.999 733.999 733.999 733.999 733.999 733.999 733.999 733.999 733.999 733.999 733.999 733.999 733.999 733.999 733.999 733.999 733.999 733.999 733.999 733.999 733.999 733.999 733.999 733.999 733.999 733.999 733.999 733.999 733.999 733.999 733.999 733.999 733.999 733.999 733.999 733.999 733.999 733.999 733.999 733.999 733.999 733.999 733.999 733.999 733.999 733.999 733.999 733.999 733.999 733.999 733.999 733.999 733.999 733.999 733.999 733.999 733.999 733.999 733.999 733.999 733.999 733.999 733.999 733.999 733.999 733.999 733.999 733.999 733.999 733.999 733.999 733.999 733.999 733.999 733.999 733.999 733.999 733.999 733.999 733.999 733.999 733.999 733.999 733.999 733.999 733.999 733.999 733.999 733.999 733.999 733.999 733.999 733.999 733.999 733.999 733.999 733.999 733.999 733.999 733.999 733.999 733.999 733.999 733.999 733.999 733.999 733.999 733.999 733.999 733.999 733.999 733.999 733.999 733.999 733.999 733.999 732.833 732.833 732.833 732.833 732.833 732.833 732.833 732.833 732.833 732.833 732.833 732.833 732.833 732.833 732.833 732.833 732.833 732.833 732.833 732.833 732.833 732.833 732.833 732.833 732.833 732.833 732.833 732.833 732.833 732.833 732.833 732.833 732.833 732.833 732.833 732.833 732.833 732.833 732.833 732.833 732.833 732.833 732.833 732.833 732.833 732.833 732.833 732.833 732.833 732.833 732.833 732.833 732.833 732.833 732.833 732.833 732.833 732.833 732.833 732.833
98 37 92 59 95 97 2 73 72 75 56 23 67 39 4 74 22 41 15 43 57 87 42 14 38 86 44 91 85 93 99 96 6 94 13 58 40 21 26 54 55 25 24 29 34 35 71 65 66 20 30 70 32 90 63 10 62 88 52 18 89 27 101 53 28 77 79 78 9 51 81 33 3 68 80 12 76 50 1 69 31 7 82 48 47 36 49 64 11 19 46 8 45 17 84 83 60 5 61 16 100
1 69 27 101 53 28 26 12 80 68 29 24 54 55 25 4 39 67 23 56 75 41 22 74 72 73 21 40 58 13 94 95 97 87 2 57 15 43 42 14 44 38 86 16 61 85 91 100 98 37 92 59 93 99 96 6 89 52 18 83 60 5 84 17 45 8 46 47 36 49 64 63 90 32 10 62 11 19 48 82 7 88 31 70 30 20 66 71 65 35 34 78 81 9 51 33 79 3 77 76 50
